10J3M/DAT/10J3MNLR-3.dat
10 3
28.9789 11.813
24.1384 10.8069
24.2891 23.4646
34.6753 29.5154
26.6497 32.534
29.3552 10.1803
26.9414 45.723
25.8585 27.2203
25.292 18.9523
18.4241 23.235
77.8149