10J3M/SOL/10J3MNLR-3.sol
solution status: optimal solution found
objective value:                     81.1462333333333
x#1#1                               0.408935801866407 	(obj:0)
x#1#2                              0.0846430111943217 	(obj:0)
x#1#3                               0.506421186939271 	(obj:0)
x#2#2                                               1 	(obj:0)
x#3#1                               0.352927557018694 	(obj:0)
x#3#2                               0.647072442981306 	(obj:0)
x#4#1                                               1 	(obj:0)
x#5#1                                               1 	(obj:0)
x#6#3                                               1 	(obj:0)
x#7#2                               0.559224285844359 	(obj:0)
x#7#3                               0.440775714155641 	(obj:0)
x#8#3                                               1 	(obj:0)
x#9#1                                               1 	(obj:0)
x#10#2                                              1 	(obj:0)
z                                    81.1462333333333 	(obj:1)
